%%%%%%%%%%%%%%%%%%%%%%%%%%%%%%%%%%%%%%%%%%%%%%%%%%%%%%%%%%%%%%%%%%%%%%%%%
%FILE DATA:	Soccer Computational Problem for MiniZinc Models
%AUTHORS:	Robinson Duque, Alejandro Arbelaez, Juan Francisco Díaz
%CONTACT:  	robinson.duque@correounivalle.edu.co 
%LAST UPDATE:	May, 2018 
%ROUND ROBIN:2
%TEAMS:20
%PRESENT FIXTURE:20
%FIXTURES TO PLAY:18
%GAMES TO PLAY:180
%%%%%%%%%%%%%%%%%%%%%%%%%%%%%%%%%%%%%%%%%%%%%%%%%%%%%%%%%%%%%%%%%%%%%%%%%
%Number of teams:
n=20;

%For the purpose of our models, we offer two representations of the games to play, namely fixtures and games to play:

%Fixtures to play:
%fixtures=[|0,0,1,1,1,1,1,1,1,1,1,1,1,1,1,1,1,1,1,1
%|0,0,1,1,1,1,1,1,1,1,1,1,1,1,1,1,1,1,1,1
%|1,1,0,0,1,1,1,1,1,1,1,1,1,1,1,1,1,1,1,1
%|1,1,0,0,1,1,1,1,1,1,1,1,1,1,1,1,1,1,1,1
%|1,1,1,1,0,1,0,1,1,1,1,1,1,1,1,1,1,1,1,1
%|1,1,1,1,1,0,1,1,1,1,1,1,1,1,1,0,1,1,1,1
%|1,1,1,1,0,1,0,1,1,1,1,1,1,1,1,1,1,1,1,1
%|1,1,1,1,1,1,1,0,1,0,1,1,1,1,1,1,1,1,1,1
%|1,1,1,1,1,1,1,1,0,1,1,0,1,1,1,1,1,1,1,1
%|1,1,1,1,1,1,1,0,1,0,1,1,1,1,1,1,1,1,1,1
%|1,1,1,1,1,1,1,1,1,1,0,1,0,1,1,1,1,1,1,1
%|1,1,1,1,1,1,1,1,0,1,1,0,1,1,1,1,1,1,1,1
%|1,1,1,1,1,1,1,1,1,1,0,1,0,1,1,1,1,1,1,1
%|1,1,1,1,1,1,1,1,1,1,1,1,1,0,0,1,1,1,1,1
%|1,1,1,1,1,1,1,1,1,1,1,1,1,0,0,1,1,1,1,1
%|1,1,1,1,1,0,1,1,1,1,1,1,1,1,1,0,1,1,1,1
%|1,1,1,1,1,1,1,1,1,1,1,1,1,1,1,1,0,0,1,1
%|1,1,1,1,1,1,1,1,1,1,1,1,1,1,1,1,0,0,1,1
%|1,1,1,1,1,1,1,1,1,1,1,1,1,1,1,1,1,1,0,0
%|1,1,1,1,1,1,1,1,1,1,1,1,1,1,1,1,1,1,0,0|];

%Played Fixtures:
%PlayedFixtures=[|0,2,1,1,1,1,1,1,1,1,1,1,1,1,1,1,1,1,1,1
%|2,0,1,1,1,1,1,1,1,1,1,1,1,1,1,1,1,1,1,1
%|1,1,0,2,1,1,1,1,1,1,1,1,1,1,1,1,1,1,1,1
%|1,1,2,0,1,1,1,1,1,1,1,1,1,1,1,1,1,1,1,1
%|1,1,1,1,0,1,2,1,1,1,1,1,1,1,1,1,1,1,1,1
%|1,1,1,1,1,0,1,1,1,1,1,1,1,1,1,2,1,1,1,1
%|1,1,1,1,2,1,0,1,1,1,1,1,1,1,1,1,1,1,1,1
%|1,1,1,1,1,1,1,0,1,2,1,1,1,1,1,1,1,1,1,1
%|1,1,1,1,1,1,1,1,0,1,1,2,1,1,1,1,1,1,1,1
%|1,1,1,1,1,1,1,2,1,0,1,1,1,1,1,1,1,1,1,1
%|1,1,1,1,1,1,1,1,1,1,0,1,2,1,1,1,1,1,1,1
%|1,1,1,1,1,1,1,1,2,1,1,0,1,1,1,1,1,1,1,1
%|1,1,1,1,1,1,1,1,1,1,2,1,0,1,1,1,1,1,1,1
%|1,1,1,1,1,1,1,1,1,1,1,1,1,0,2,1,1,1,1,1
%|1,1,1,1,1,1,1,1,1,1,1,1,1,2,0,1,1,1,1,1
%|1,1,1,1,1,2,1,1,1,1,1,1,1,1,1,0,1,1,1,1
%|1,1,1,1,1,1,1,1,1,1,1,1,1,1,1,1,0,2,1,1
%|1,1,1,1,1,1,1,1,1,1,1,1,1,1,1,1,2,0,1,1
%|1,1,1,1,1,1,1,1,1,1,1,1,1,1,1,1,1,1,0,2
%|1,1,1,1,1,1,1,1,1,1,1,1,1,1,1,1,1,1,2,0|];

%Games to play:
games=[|3,1|3,2|4,1|4,2|5,1|5,2|5,3|5,4|6,1|6,2|6,3|6,4|6,5|7,1|7,2|7,3|7,4|7,6|8,1|8,2|8,3|8,4|8,5|8,6|8,7|9,1|9,2|9,3|9,4|9,5|9,6|9,7|9,8|10,1|10,2|10,3|10,4|10,5|10,6|10,7|10,9|11,1|11,2|11,3|11,4|11,5|11,6|11,7|11,8|11,9|11,10|12,1|12,2|12,3|12,4|12,5|12,6|12,7|12,8|12,10|12,11|13,1|13,2|13,3|13,4|13,5|13,6|13,7|13,8|13,9|13,10|13,12|14,1|14,2|14,3|14,4|14,5|14,6|14,7|14,8|14,9|14,10|14,11|14,12|14,13|15,1|15,2|15,3|15,4|15,5|15,6|15,7|15,8|15,9|15,10|15,11|15,12|15,13|16,1|16,2|16,3|16,4|16,5|16,7|16,8|16,9|16,10|16,11|16,12|16,13|16,14|16,15|17,1|17,2|17,3|17,4|17,5|17,6|17,7|17,8|17,9|17,10|17,11|17,12|17,13|17,14|17,15|17,16|18,1|18,2|18,3|18,4|18,5|18,6|18,7|18,8|18,9|18,10|18,11|18,12|18,13|18,14|18,15|18,16|19,1|19,2|19,3|19,4|19,5|19,6|19,7|19,8|19,9|19,10|19,11|19,12|19,13|19,14|19,15|19,16|19,17|19,18|20,1|20,2|20,3|20,4|20,5|20,6|20,7|20,8|20,9|20,10|20,11|20,12|20,13|20,14|20,15|20,16|20,17|20,18|];

%Played Games:
%PlayedGames=[|2,1|2,1|3,1|3,2|4,1|4,2|4,3|4,3|5,1|5,2|5,3|5,4|6,1|6,2|6,3|6,4|6,5|7,1|7,2|7,3|7,4|7,5|7,5|7,6|8,1|8,2|8,3|8,4|8,5|8,6|8,7|9,1|9,2|9,3|9,4|9,5|9,6|9,7|9,8|10,1|10,2|10,3|10,4|10,5|10,6|10,7|10,8|10,8|10,9|11,1|11,2|11,3|11,4|11,5|11,6|11,7|11,8|11,9|11,10|12,1|12,2|12,3|12,4|12,5|12,6|12,7|12,8|12,9|12,9|12,10|12,11|13,1|13,2|13,3|13,4|13,5|13,6|13,7|13,8|13,9|13,10|13,11|13,11|13,12|14,1|14,2|14,3|14,4|14,5|14,6|14,7|14,8|14,9|14,10|14,11|14,12|14,13|15,1|15,2|15,3|15,4|15,5|15,6|15,7|15,8|15,9|15,10|15,11|15,12|15,13|15,14|15,14|16,1|16,2|16,3|16,4|16,5|16,6|16,6|16,7|16,8|16,9|16,10|16,11|16,12|16,13|16,14|16,15|17,1|17,2|17,3|17,4|17,5|17,6|17,7|17,8|17,9|17,10|17,11|17,12|17,13|17,14|17,15|17,16|18,1|18,2|18,3|18,4|18,5|18,6|18,7|18,8|18,9|18,10|18,11|18,12|18,13|18,14|18,15|18,16|18,17|18,17|19,1|19,2|19,3|19,4|19,5|19,6|19,7|19,8|19,9|19,10|19,11|19,12|19,13|19,14|19,15|19,16|19,17|19,18|20,1|20,2|20,3|20,4|20,5|20,6|20,7|20,8|20,9|20,10|20,11|20,12|20,13|20,14|20,15|20,16|20,17|20,18|20,19|20,19|];

%Played Games - Win Results:
%% 0  0  0  0  0  0  0  1  0  0  0  0  0  0  0  0  0  1  0  0
%% 0  0  0  0  0  0  0  0  0  0  1  0  0  0  0  0  1  0  0  0
%% 1  1  0  0  0  0  0  1  0  0  0  0  1  1  0  1  0  0  0  0
%% 0  0  0  0  0  0  1  1  0  0  1  0  1  1  0  0  0  1  0  0
%% 0  0  0  0  0  0  0  0  1  0  0  0  1  0  0  1  0  0  0  0
%% 0  0  1  0  1  0  1  1  1  0  1  0  0  0  0  0  0  1  0  0
%% 1  0  0  0  0  0  0  0  0  0  0  0  0  0  0  1  1  0  0  0
%% 0  0  0  0  0  0  0  0  0  0  0  0  0  0  0  0  0  0  0  0
%% 0  0  0  0  0  0  0  0  0  0  0  0  0  0  0  0  1  0  0  0
%% 1  1  1  1  1  1  1  0  1  0  1  1  0  1  0  1  0  0  1  0
%% 0  0  0  0  0  0  0  0  0  0  0  0  0  0  0  0  0  0  0  0
%% 1  1  1  1  1  0  0  0  0  0  0  0  0  1  0  0  0  0  0  0
%% 0  0  0  0  0  0  0  0  0  0  0  0  0  0  0  0  0  1  0  0
%% 0  0  0  0  0  0  0  0  1  0  0  0  1  0  0  1  1  0  0  0
%% 0  1  0  1  1  1  0  1  1  1  1  1  0  0  0  0  1  0  1  0
%% 1  0  0  0  0  0  0  0  0  0  0  0  1  0  0  0  0  0  0  0
%% 0  0  0  0  0  0  0  1  0  0  0  0  0  0  0  0  0  0  0  0
%% 0  0  0  0  0  0  0  0  0  0  0  0  0  0  0  0  0  0  0  0
%% 0  1  1  0  0  0  1  0  1  0  0  1  1  0  0  0  1  0  0  2
%% 0  0  0  1  1  1  1  0  1  0  1  1  0  1  0  1  0  1  0  0
%Played Games - Tie Results:
%% 0  2  0  1  1  1  0  0  1  0  1  0  1  1  1  0  1  0  1  1
%% 2  0  0  1  1  1  1  1  1  0  0  0  1  1  0  1  0  1  0  1
%% 0  0  0  2  1  0  1  0  1  0  1  0  0  0  1  0  1  1  0  1
%% 1  1  2  0  1  1  0  0  1  0  0  0  0  0  0  1  1  0  1  0
%% 1  1  1  1  0  0  2  1  0  0  1  0  0  1  0  0  1  1  1  0
%% 1  1  0  1  0  0  0  0  0  0  0  1  1  1  0  2  1  0  1  0
%% 0  1  1  0  2  0  0  1  1  0  1  1  1  1  1  0  0  1  0  0
%% 0  1  0  0  1  0  1  0  1  2  1  1  1  1  0  1  0  1  1  1
%% 1  1  1  1  0  0  1  1  0  0  1  2  1  0  0  1  0  1  0  0
%% 0  0  0  0  0  0  0  2  0  0  0  0  1  0  0  0  1  1  0  1
%% 1  0  1  0  1  0  1  1  1  0  0  1  2  1  0  1  1  1  1  0
%% 0  0  0  0  0  1  1  1  2  0  1  0  1  0  0  1  1  1  0  0
%% 1  1  0  0  0  1  1  1  1  1  2  1  0  0  1  0  1  0  0  1
%% 1  1  0  0  1  1  1  1  0  0  1  0  0  0  2  0  0  1  1  0
%% 1  0  1  0  0  0  1  0  0  0  0  0  1  2  0  1  0  1  0  1
%% 0  1  0  1  0  2  0  1  1  0  1  1  0  0  1  0  1  1  1  0
%% 1  0  1  1  1  1  0  0  0  1  1  1  1  0  0  1  0  2  0  1
%% 0  1  1  0  1  0  1  1  1  1  1  1  0  1  1  1  2  0  1  0
%% 1  0  0  1  1  1  0  1  0  0  1  0  0  1  0  1  0  1  0  0
%% 1  1  1  0  0  0  0  1  0  1  0  0  1  0  1  0  1  0  0  0
%Played Games - Lose Results:
%% 0  0  1  0  0  0  1  0  0  1  0  1  0  0  0  1  0  0  0  0
%% 0  0  1  0  0  0  0  0  0  1  0  1  0  0  1  0  0  0  1  0
%% 0  0  0  0  0  1  0  0  0  1  0  1  0  0  0  0  0  0  1  0
%% 0  0  0  0  0  0  0  0  0  1  0  1  0  0  1  0  0  0  0  1
%% 0  0  0  0  0  1  0  0  0  1  0  1  0  0  1  0  0  0  0  1
%% 0  0  0  0  0  0  0  0  0  1  0  0  0  0  1  0  0  0  0  1
%% 0  0  0  1  0  1  0  0  0  1  0  0  0  0  0  0  0  0  1  1
%% 1  0  1  1  0  1  0  0  0  0  0  0  0  0  1  0  1  0  0  0
%% 0  0  0  0  1  1  0  0  0  1  0  0  0  1  1  0  0  0  1  1
%% 0  0  0  0  0  0  0  0  0  0  0  0  0  0  1  0  0  0  0  0
%% 0  1  0  1  0  1  0  0  0  1  0  0  0  0  1  0  0  0  0  1
%% 0  0  0  0  0  0  0  0  0  1  0  0  0  0  1  0  0  0  1  1
%% 0  0  1  1  1  0  0  0  0  0  0  0  0  1  0  1  0  0  1  0
%% 0  0  1  1  0  0  0  0  0  1  0  1  0  0  0  0  0  0  0  1
%% 0  0  0  0  0  0  0  0  0  0  0  0  0  0  0  0  0  0  0  0
%% 0  0  1  0  1  0  1  0  0  1  0  0  0  1  0  0  0  0  0  1
%% 0  1  0  0  0  0  1  0  1  0  0  0  0  1  1  0  0  0  1  0
%% 1  0  0  1  0  1  0  0  0  0  0  0  1  0  0  0  0  0  0  1
%% 0  0  0  0  0  0  0  0  0  1  0  0  0  0  1  0  0  0  0  0
%% 0  0  0  0  0  0  0  0  0  0  0  0  0  0  0  0  0  0  2  0

%%Initial points:
iPoints=[19, 19, 28, 28, 21, 31, 21, 14, 15, 45, 14, 28, 16, 23, 42, 18, 16, 15, 36, 38];

%%Initial positions:
%iPositions=[13, 12, 8, 7, 11, 5, 10, 20, 18, 1, 19, 6, 16, 9, 2, 14, 15, 17, 4, 3];

%%Position Constraints:
%numberPositionConstraints=2;

%%Total Fixtures:
%totalFixtures=38;

%%Fixtures to Play:
%fixturesToPlay=18;

%%Position Constraints Built With
%wantedPoints=[3, 3, 1, 0, 0, 0, 1, 1, 3, 1, 1, 0, 3, 0, 0, 1, 1, 3, 0, 1, 0, 3, 1, 0, 1, 1, 3, 0, 1, 3, 0, 3, 1, 3, 3, 1, 3, 0, 3, 0, 1, 3, 3, 0, 3, 0, 3, 3, 0, 3, 0, 0, 3, 1, 1, 3, 0, 0, 3, 0, 0, 0, 1, 3, 1, 3, 1, 3, 3, 3, 0, 1, 0, 0, 0, 0, 3, 1, 3, 0, 3, 3, 0, 0, 1, 1, 3, 0, 3, 3, 3, 1, 0, 3, 1, 1, 1, 3, 0, 1, 3, 3, 1, 0, 0, 1, 1, 0, 1, 3, 1, 0, 0, 0, 3, 0, 3, 1, 0, 1, 0, 3, 0, 3, 3, 0, 3, 1, 0, 0, 3, 3, 3, 0, 3, 3, 0, 0, 0, 0, 1, 3, 0, 0, 3, 1, 1, 1, 0, 0, 1, 3, 1, 1, 0, 0, 0, 3, 1, 0, 3, 1, 3, 1, 1, 0, 0, 0, 3, 1, 1, 0, 1, 1, 1, 1, 1, 0, 0, 1];

%POSITION CONSTRAINTS
%%[|teamID, operator, position|...]
%%operators index:
%%%1 for =  operator
%%%2 for >  operator
%%%3 for >= operator
%%%4 for <  operator
%%%5 for <= operator

positionConstraints=[|19,1,4|10,1,1|];

%SCORE VECTOR CONSTRAINTS
%%[|teamID, operator, wantedPoints|...]
%%operators index:
%%%1 for =  operator
%%%2 for >  operator
%%%3 for >= operator
%%%4 for <  operator
%%%5 for <= operator

%scoreVectorConstraints=[|19,1,56|10,1,77|];

%Instance Features:
%features=T,FP,TF,C,C/T,C/TF,FP/TF,FP/T,FP*C/T,FP*T/C,(C/T)*(FP/TF),Distance,Distance/C,Distance/T,Distance/(C*T)
%values=20,18,38,2,0.1,0.05263157894736842,0.4736842105263158,0.9,1.8,180.0,0.04736842105263158,0,0.0,0.0,0.0



gamesOfEveryTeam=[18,18,18,18,18,18,18,18,18,18,18,18,18,18,18,18,18,18,18,18];
weights=[|44,8,0,48|51,45,0,4|46,50,0,4|59,14,0,27|6,74,0,20|98,0,0,2|98,0,0,2|83,4,0,13|78,18,0,4|8,92,0,0|77,3,0,20|91,9,0,0|60,3,0,37|61,11,0,28|10,64,0,26|6,14,0,80|54,38,0,8|13,74,0,13|15,76,0,9|76,4,0,20|63,28,0,9|17,6,0,77|93,3,0,4|77,0,0,23|86,4,0,10|69,9,0,22|41,41,0,18|98,0,0,2|76,16,0,8|88,2,0,10|28,55,0,17|99,0,0,1|54,1,0,45|65,26,0,9|87,13,0,0|8,92,0,0|74,9,0,17|97,3,0,0|6,43,0,51|35,39,0,26|79,2,0,19|25,9,0,66|16,10,0,74|36,47,0,17|100,0,0,0|49,17,0,34|83,3,0,14|19,15,0,66|83,9,0,8|36,14,0,50|99,1,0,0|54,20,0,26|29,57,0,14|74,26,0,0|82,8,0,10|38,56,0,6|81,16,0,3|20,57,0,23|75,15,0,10|67,15,0,18|81,10,0,9|34,42,0,24|1,53,0,46|49,40,0,11|0,68,0,32|77,9,0,14|92,0,0,8|5,47,0,48|10,54,0,36|53,8,0,39|30,34,0,36|63,15,0,22|92,3,0,5|51,31,0,18|32,48,0,20|9,84,0,7|36,38,0,26|85,12,0,3|83,0,0,17|9,23,0,68|25,72,0,3|44,31,0,25|43,56,0,1|67,21,0,12|28,41,0,31|44,21,0,35|86,10,0,4|67,1,0,32|97,3,0,0|32,32,0,36|77,7,0,16|89,9,0,2|14,6,0,80|34,60,0,6|41,58,0,1|74,23,0,3|31,20,0,49|93,5,0,2|47,53,0,0|98,0,0,2|31,9,0,60|20,60,0,20|96,4,0,0|45,30,0,25|35,59,0,6|60,35,0,5|70,1,0,29|57,5,0,38|89,8,0,3|13,31,0,56|78,15,0,7|80,19,0,1|72,10,0,18|42,21,0,37|90,7,0,3|84,5,0,11|85,6,0,9|18,11,0,71|47,33,0,20|31,69,0,0|61,0,0,39|99,1,0,0|87,11,0,2|6,2,0,92|92,6,0,2|39,36,0,25|86,5,0,9|18,45,0,37|86,1,0,13|6,24,0,70|98,2,0,0|42,45,0,13|54,26,0,20|6,94,0,0|83,7,0,10|84,3,0,13|30,23,0,47|66,8,0,26|61,22,0,17|6,6,0,88|73,8,0,19|1,56,0,43|57,11,0,32|28,65,0,7|74,0,0,26|27,2,0,71|96,3,0,1|36,34,0,30|97,0,0,3|68,15,0,17|20,13,0,67|82,4,0,14|0,70,0,30|12,85,0,3|95,3,0,2|15,54,0,31|88,11,0,1|90,2,0,8|93,5,0,2|14,85,0,1|5,38,0,57|29,54,0,17|7,67,0,26|91,6,0,3|51,1,0,48|38,53,0,9|26,33,0,41|80,5,0,15|94,0,0,6|74,6,0,20|84,3,0,13|6,90,0,4|80,15,0,5|22,47,0,31|92,1,0,7|47,42,0,11|32,19,0,49|98,2,0,0|35,48,0,17|15,23,0,62|];